RAW/CMTQ/fspd/CMT7Q.vrp_seed-8.out
900.6920473	14.531	30.868
