RAW/CMTQ/fspd/CMT7Q.vrp_seed-8.sol
Route #1: 67 34 46 52 4 75
Route #2: 68 62 22 64 42 1 73
Route #3: 51 16 49 24 3 44 40 17
Route #4: 27 57 15 5 47 48 29 45
Route #5: 63 23 56 41 43 33 6
Route #6: 2 28 61 69 21 74 30
Route #7: 12 72 39 31 10 58 26
Route #8: 38 65 66 11 53 35 8
Route #9: 13 54 19 59 14 7
Route #10: 37 20 70 60 71 36
Route #11: 32 50 18 55 25 9
Cost 900.692047